33D32945 STP File, STP Format Version 1.0

SECTION Comment
Name "i640-301-PCST"
Creator "Indaco Biazzo" 
Remark "derived from Incidence graph by Cees Duin"
END

SECTION Graph
Nodes 640
Edges 960
E 1 165 196.000000
E 1 220 192.000000
E 1 288 200.000000
E 1 300 186.000000
E 1 479 203.000000
E 1 526 199.000000
E 1 544 205.000000
E 1 597 199.000000
E 2 86 300.000000
E 2 437 200.000000
E 2 603 200.000000
E 3 309 195.000000
E 4 115 303.000000
E 4 231 193.000000
E 4 577 201.000000
E 5 41 299.000000
E 5 186 212.000000
E 5 195 209.000000
E 5 392 197.000000
E 5 393 204.000000
E 5 574 204.000000
E 5 603 209.000000
E 6 272 206.000000
E 6 444 198.000000
E 7 126 294.000000
E 7 170 200.000000
E 7 581 197.000000
E 8 138 296.000000
E 8 229 205.000000
E 8 352 200.000000
E 8 397 195.000000
E 8 582 202.000000
E 9 188 204.000000
E 9 356 196.000000
E 9 570 204.000000
E 10 51 300.000000
E 10 258 192.000000
E 10 289 206.000000
E 11 139 304.000000
E 11 235 207.000000
E 11 268 210.000000
E 11 589 197.000000
E 12 233 195.000000
E 12 473 207.000000
E 13 57 298.000000
E 13 84 295.000000
E 13 188 197.000000
E 13 242 203.000000
E 13 434 207.000000
E 14 59 293.000000
E 14 533 200.000000
E 15 39 292.000000
E 15 328 195.000000
E 15 330 194.000000
E 15 544 194.000000
E 16 67 287.000000
E 16 133 302.000000
E 16 217 202.000000
E 16 409 203.000000
E 16 487 197.000000
E 16 488 203.000000
E 16 551 202.000000
E 16 588 202.000000
E 16 601 201.000000
E 17 528 194.000000
E 17 567 204.000000
E 18 337 192.000000
E 18 526 208.000000
E 19 191 200.000000
E 19 224 195.000000
E 19 234 196.000000
E 19 337 198.000000
E 19 597 200.000000
E 20 96 310.000000
E 20 122 298.000000
E 20 328 190.000000
E 20 457 195.000000
E 20 588 200.000000
E 21 420 196.000000
E 21 533 201.000000
E 22 91 310.000000
E 22 207 194.000000
E 22 353 203.000000
E 22 403 197.000000
E 22 599 192.000000
E 23 69 301.000000
E 23 560 205.000000
E 24 86 295.000000
E 24 149 304.000000
E 24 270 199.000000
E 24 365 200.000000
E 25 629 207.000000
E 26 177 200.000000
E 26 279 199.000000
E 26 536 198.000000
E 27 285 195.000000
E 27 307 200.000000
E 27 342 204.000000
E 27 350 197.000000
E 27 380 195.000000
E 27 403 206.000000
E 27 511 195.000000
E 28 112 302.000000
E 28 247 194.000000
E 28 349 204.000000
E 29 562 207.000000
E 29 618 202.000000
E 30 124 296.000000
E 30 367 208.000000
E 30 471 194.000000
E 30 538 196.000000
E 31 392 196.000000
E 32 111 299.000000
E 32 198 195.000000
E 32 212 200.000000
E 33 230 194.000000
E 33 315 197.000000
E 33 588 194.000000
E 34 396 199.000000
E 35 561 203.000000
E 36 445 199.000000
E 37 54 298.000000
E 37 300 195.000000
E 37 451 200.000000
E 37 470 193.000000
E 37 513 198.000000
E 37 514 197.000000
E 38 425 201.000000
E 38 426 207.000000
E 38 431 187.000000
E 38 557 198.000000
E 38 634 204.000000
E 39 586 203.000000
E 39 615 196.000000
E 40 316 196.000000
E 40 494 193.000000
E 40 497 195.000000
E 40 519 196.000000
E 40 521 195.000000
E 40 567 198.000000
E 41 94 308.000000
E 41 148 300.000000
E 41 423 203.000000
E 41 621 206.000000
E 42 397 202.000000
E 42 620 198.000000
E 43 102 302.000000
E 43 229 203.000000
E 43 332 198.000000
E 43 543 193.000000
E 44 68 307.000000
E 44 271 208.000000
E 44 321 202.000000
E 44 330 199.000000
E 44 604 204.000000
E 44 614 204.000000
E 45 54 293.000000
E 45 69 293.000000
E 45 268 201.000000
E 45 327 197.000000
E 45 542 199.000000
E 46 98 293.000000
E 46 476 183.000000
E 46 498 198.000000
E 47 531 206.000000
E 47 595 201.000000
E 48 200 208.000000
E 48 491 199.000000
E 48 544 208.000000
E 49 606 200.000000
E 50 279 201.000000
E 50 465 190.000000
E 51 185 198.000000
E 51 248 204.000000
E 51 586 196.000000
E 52 208 190.000000
E 52 213 195.000000
E 53 72 303.000000
E 53 95 297.000000
E 53 263 194.000000
E 53 385 201.000000
E 54 233 200.000000
E 54 265 199.000000
E 55 381 201.000000
E 55 382 200.000000
E 56 369 195.000000
E 56 540 202.000000
E 56 561 199.000000
E 58 160 300.000000
E 59 110 300.000000
E 59 290 197.000000
E 59 304 203.000000
E 59 443 194.000000
E 59 462 198.000000
E 60 274 196.000000
E 60 436 201.000000
E 61 80 308.000000
E 61 382 191.000000
E 61 556 200.000000
E 62 243 201.000000
E 62 287 209.000000
E 62 589 197.000000
E 63 217 200.000000
E 63 334 197.000000
E 63 523 201.000000
E 64 115 302.000000
E 64 261 206.000000
E 64 431 200.000000
E 64 546 203.000000
E 65 101 301.000000
E 65 236 196.000000
E 65 599 197.000000
E 66 146 305.000000
E 66 233 195.000000
E 66 345 196.000000
E 67 209 200.000000
E 67 224 200.000000
E 68 593 196.000000
E 69 472 195.000000
E 69 480 200.000000
E 70 492 195.000000
E 70 517 205.000000
E 70 611 202.000000
E 71 489 195.000000
E 72 234 201.000000
E 72 531 192.000000
E 73 123 303.000000
E 73 469 194.000000
E 74 351 194.000000
E 74 422 196.000000
E 74 453 197.000000
E 74 565 198.000000
E 75 130 299.000000
E 75 323 198.000000
E 75 463 202.000000
E 76 261 204.000000
E 76 264 191.000000
E 76 383 195.000000
E 77 410 198.000000
E 77 421 207.000000
E 77 424 190.000000
E 77 639 192.000000
E 78 629 199.000000
E 79 160 307.000000
E 79 362 201.000000
E 79 449 200.000000
E 79 576 195.000000
E 80 98 298.000000
E 81 300 205.000000
E 81 318 198.000000
E 82 420 205.000000
E 82 575 204.000000
E 83 180 191.000000
E 83 395 196.000000
E 84 98 301.000000
E 84 632 199.000000
E 85 300 199.000000
E 85 329 198.000000
E 85 486 197.000000
E 85 572 200.000000
E 86 120 289.000000
E 86 128 301.000000
E 86 282 194.000000
E 86 399 197.000000
E 86 502 190.000000
E 86 539 196.000000
E 87 390 193.000000
E 87 410 195.000000
E 87 412 196.000000
E 88 208 192.000000
E 88 311 191.000000
E 89 115 302.000000
E 89 533 207.000000
E 89 625 197.000000
E 90 117 302.000000
E 90 132 295.000000
E 90 217 193.000000
E 90 378 201.000000
E 90 464 198.000000
E 91 269 198.000000
E 92 102 307.000000
E 92 320 198.000000
E 92 424 191.000000
E 93 123 300.000000
E 93 216 198.000000
E 93 285 199.000000
E 94 524 201.000000
E 95 317 202.000000
E 95 463 210.000000
E 96 537 204.000000
E 96 633 200.000000
E 97 305 203.000000
E 97 506 208.000000
E 98 305 195.000000
E 98 482 185.000000
E 99 388 197.000000
E 99 509 208.000000
E 100 328 194.000000
E 100 461 204.000000
E 100 527 201.000000
E 100 554 200.000000
E 101 211 198.000000
E 101 393 205.000000
E 101 607 206.000000
E 102 161 204.000000
E 102 353 200.000000
E 103 184 199.000000
E 103 390 198.000000
E 104 479 207.000000
E 104 545 192.000000
E 105 214 204.000000
E 105 243 196.000000
E 105 505 201.000000
E 106 119 304.000000
E 107 355 200.000000
E 107 585 204.000000
E 108 348 202.000000
E 108 492 199.000000
E 109 368 203.000000
E 110 273 200.000000
E 111 302 196.000000
E 112 120 303.000000
E 112 160 303.000000
E 112 217 204.000000
E 112 322 203.000000
E 112 515 198.000000
E 112 606 197.000000
E 113 164 199.000000
E 114 115 296.000000
E 114 210 192.000000
E 114 249 198.000000
E 114 260 207.000000
E 114 324 195.000000
E 114 410 200.000000
E 115 129 304.000000
E 115 382 193.000000
E 116 532 194.000000
E 117 302 209.000000
E 118 130 302.000000
E 118 354 199.000000
E 118 598 199.000000
E 119 131 288.000000
E 119 196 204.000000
E 119 356 197.000000
E 119 512 193.000000
E 120 151 304.000000
E 120 287 203.000000
E 120 456 202.000000
E 121 614 200.000000
E 122 223 200.000000
E 122 390 200.000000
E 122 500 193.000000
E 123 173 200.000000
E 123 354 198.000000
E 124 258 204.000000
E 125 279 200.000000
E 126 152 303.000000
E 126 507 204.000000
E 127 412 200.000000
E 127 499 203.000000
E 128 243 189.000000
E 128 468 203.000000
E 128 576 198.000000
E 129 319 202.000000
E 129 511 204.000000
E 129 615 197.000000
E 130 276 201.000000
E 130 633 199.000000
E 131 611 196.000000
E 132 199 196.000000
E 132 354 204.000000
E 133 143 301.000000
E 133 345 197.000000
E 133 582 196.000000
E 133 589 190.000000
E 134 150 300.000000
E 134 185 202.000000
E 135 365 204.000000
E 135 403 202.000000
E 135 563 206.000000
E 136 532 199.000000
E 137 185 201.000000
E 137 314 197.000000
E 137 566 206.000000
E 137 580 201.000000
E 138 168 203.000000
E 138 243 204.000000
E 138 326 195.000000
E 138 368 195.000000
E 138 416 199.000000
E 138 439 190.000000
E 139 430 194.000000
E 139 607 194.000000
E 140 263 192.000000
E 141 145 305.000000
E 142 237 208.000000
E 142 312 205.000000
E 144 209 206.000000
E 144 230 197.000000
E 144 507 201.000000
E 145 305 196.000000
E 145 467 206.000000
E 145 632 197.000000
E 147 231 202.000000
E 147 266 197.000000
E 147 446 198.000000
E 148 272 203.000000
E 148 383 200.000000
E 148 386 202.000000
E 149 159 301.000000
E 149 414 196.000000
E 150 373 208.000000
E 150 398 209.000000
E 153 299 198.000000
E 153 326 204.000000
E 154 287 197.000000
E 154 333 204.000000
E 154 582 199.000000
E 154 612 203.000000
E 155 189 199.000000
E 155 438 194.000000
E 155 479 183.000000
E 155 530 196.000000
E 156 174 200.000000
E 156 578 205.000000
E 156 588 195.000000
E 157 444 192.000000
E 157 595 207.000000
E 158 205 197.000000
E 158 250 202.000000
E 158 417 209.000000
E 158 507 186.000000
E 158 532 192.000000
E 159 468 203.000000
E 160 430 198.000000
E 160 487 199.000000
E 160 497 201.000000
E 161 207 104.000000
E 161 264 105.000000
E 162 221 102.000000
E 162 366 96.000000
E 163 242 104.000000
E 164 235 103.000000
E 164 380 96.000000
E 165 346 89.000000
E 166 335 96.000000
E 166 590 105.000000
E 167 217 95.000000
E 167 529 93.000000
E 168 221 94.000000
E 168 602 92.000000
E 169 509 103.000000
E 170 396 101.000000
E 171 237 105.000000
E 172 247 100.000000
E 174 605 90.000000
E 175 262 101.000000
E 175 489 105.000000
E 175 586 99.000000
E 176 278 95.000000
E 176 518 101.000000
E 176 535 105.000000
E 178 293 94.000000
E 178 501 101.000000
E 179 606 85.000000
E 179 639 109.000000
E 180 267 101.000000
E 180 279 100.000000
E 180 364 104.000000
E 180 622 94.000000
E 181 357 102.000000
E 182 343 94.000000
E 182 623 106.000000
E 183 341 105.000000
E 183 425 97.000000
E 183 572 100.000000
E 184 391 97.000000
E 184 626 99.000000
E 185 250 98.000000
E 185 347 113.000000
E 185 396 106.000000
E 185 474 92.000000
E 185 633 91.000000
E 186 193 95.000000
E 186 539 97.000000
E 187 222 97.000000
E 187 391 93.000000
E 188 328 100.000000
E 188 434 106.000000
E 189 320 99.000000
E 189 482 95.000000
E 189 490 100.000000
E 189 599 92.000000
E 190 326 94.000000
E 190 359 101.000000
E 191 234 97.000000
E 191 343 97.000000
E 191 470 105.000000
E 191 492 93.000000
E 192 304 100.000000
E 192 623 101.000000
E 193 195 110.000000
E 193 479 102.000000
E 194 255 94.000000
E 194 327 92.000000
E 194 335 95.000000
E 194 476 101.000000
E 195 373 102.000000
E 195 606 101.000000
E 196 566 99.000000
E 197 326 102.000000
E 197 355 110.000000
E 197 472 107.000000
E 197 508 96.000000
E 197 607 107.000000
E 198 404 102.000000
E 198 489 90.000000
E 198 496 103.000000
E 201 393 94.000000
E 201 435 101.000000
E 201 493 101.000000
E 201 518 104.000000
E 202 242 99.000000
E 203 226 96.000000
E 203 235 104.000000
E 203 309 98.000000
E 204 371 111.000000
E 204 423 95.000000
E 204 575 114.000000
E 204 583 101.000000
E 205 230 98.000000
E 206 367 98.000000
E 208 316 98.000000
E 209 585 99.000000
E 210 373 99.000000
E 210 608 96.000000
E 212 401 97.000000
E 212 448 106.000000
E 212 626 102.000000
E 213 592 102.000000
E 214 552 104.000000
E 214 589 96.000000
E 215 418 91.000000
E 215 626 104.000000
E 216 270 104.000000
E 216 365 95.000000
E 217 293 101.000000
E 217 295 97.000000
E 217 629 95.000000
E 217 638 101.000000
E 218 275 97.000000
E 218 370 109.000000
E 218 406 100.000000
E 218 427 105.000000
E 218 455 97.000000
E 219 227 97.000000
E 219 340 95.000000
E 221 611 102.000000
E 222 438 94.000000
E 223 341 103.000000
E 224 566 99.000000
E 225 360 101.000000
E 226 240 100.000000
E 227 394 96.000000
E 227 484 97.000000
E 227 586 94.000000
E 228 230 92.000000
E 228 310 96.000000
E 228 569 99.000000
E 229 242 95.000000
E 229 401 97.000000
E 229 461 104.000000
E 229 468 107.000000
E 229 598 99.000000
E 231 235 105.000000
E 231 331 108.000000
E 231 349 105.000000
E 231 460 103.000000
E 232 304 94.000000
E 232 400 94.000000
E 233 569 107.000000
E 234 620 105.000000
E 234 627 92.000000
E 235 259 101.000000
E 235 389 103.000000
E 235 455 92.000000
E 235 491 96.000000
E 235 517 100.000000
E 235 544 101.000000
E 236 535 94.000000
E 236 536 93.000000
E 237 431 100.000000
E 238 321 101.000000
E 239 306 89.000000
E 239 466 97.000000
E 240 561 90.000000
E 241 468 108.000000
E 241 555 105.000000
E 242 348 103.000000
E 242 461 92.000000
E 242 549 100.000000
E 243 258 96.000000
E 243 306 97.000000
E 243 407 95.000000
E 244 319 102.000000
E 244 376 94.000000
E 245 522 101.000000
E 246 463 99.000000
E 248 292 99.000000
E 249 392 107.000000
E 249 627 105.000000
E 250 277 103.000000
E 250 375 103.000000
E 250 437 100.000000
E 251 261 98.000000
E 251 263 98.000000
E 251 311 103.000000
E 251 346 92.000000
E 251 379 109.000000
E 251 437 109.000000
E 251 600 102.000000
E 251 616 100.000000
E 252 353 89.000000
E 252 432 87.000000
E 252 457 93.000000
E 253 286 96.000000
E 253 555 101.000000
E 254 492 98.000000
E 256 418 93.000000
E 256 456 102.000000
E 257 263 89.000000
E 257 293 95.000000
E 257 386 107.000000
E 258 287 97.000000
E 258 329 98.000000
E 258 630 101.000000
E 259 365 101.000000
E 259 390 91.000000
E 259 489 103.000000
E 259 553 101.000000
E 259 575 103.000000
E 260 342 108.000000
E 261 470 107.000000
E 262 485 98.000000
E 262 492 103.000000
E 264 405 98.000000
E 265 270 101.000000
E 265 579 105.000000
E 267 281 99.000000
E 267 287 90.000000
E 269 593 104.000000
E 271 275 90.000000
E 273 434 109.000000
E 273 443 112.000000
E 274 369 101.000000
E 274 383 105.000000
E 275 336 88.000000
E 276 549 99.000000
E 277 384 104.000000
E 277 495 95.000000
E 277 563 106.000000
E 278 282 101.000000
E 279 479 92.000000
E 279 513 96.000000
E 280 341 99.000000
E 280 433 96.000000
E 281 603 94.000000
E 281 622 102.000000
E 282 454 99.000000
E 282 503 91.000000
E 282 564 94.000000
E 282 573 104.000000
E 283 605 97.000000
E 283 610 103.000000
E 284 606 101.000000
E 286 531 102.000000
E 287 493 102.000000
E 287 539 100.000000
E 287 590 99.000000
E 288 559 107.000000
E 288 629 97.000000
E 289 541 97.000000
E 290 323 105.000000
E 290 455 93.000000
E 291 537 105.000000
E 292 459 102.000000
E 293 516 100.000000
E 293 537 99.000000
E 294 445 103.000000
E 294 449 94.000000
E 295 479 100.000000
E 295 637 98.000000
E 296 419 107.000000
E 296 562 100.000000
E 297 495 101.000000
E 297 587 95.000000
E 298 381 91.000000
E 298 391 104.000000
E 299 362 94.000000
E 300 522 102.000000
E 301 381 92.000000
E 301 400 110.000000
E 303 450 91.000000
E 303 460 97.000000
E 303 474 96.000000
E 303 482 102.000000
E 303 490 94.000000
E 304 540 101.000000
E 306 433 104.000000
E 306 579 97.000000
E 307 328 105.000000
E 307 399 101.000000
E 307 638 99.000000
E 308 622 99.000000
E 311 583 102.000000
E 312 322 90.000000
E 312 338 95.000000
E 312 538 108.000000
E 313 377 102.000000
E 313 434 95.000000
E 313 521 99.000000
E 313 633 95.000000
E 314 396 95.000000
E 314 482 99.000000
E 315 417 97.000000
E 315 476 99.000000
E 316 339 102.000000
E 316 452 105.000000
E 316 545 101.000000
E 317 499 97.000000
E 318 486 104.000000
E 318 613 87.000000
E 319 354 102.000000
E 319 394 100.000000
E 319 473 95.000000
E 319 532 97.000000
E 319 597 99.000000
E 322 354 96.000000
E 323 461 94.000000
E 325 385 94.000000
E 325 615 100.000000
E 326 453 110.000000
E 326 561 101.000000
E 327 552 103.000000
E 327 581 97.000000
E 328 614 100.000000
E 329 358 102.000000
E 329 434 107.000000
E 330 372 98.000000
E 330 591 103.000000
E 331 458 94.000000
E 332 581 111.000000
E 333 589 105.000000
E 334 415 99.000000
E 334 471 100.000000
E 336 479 96.000000
E 337 524 91.000000
E 338 594 101.000000
E 340 359 96.000000
E 340 394 103.000000
E 340 598 89.000000
E 341 389 98.000000
E 341 563 95.000000
E 342 400 99.000000
E 342 466 90.000000
E 342 594 101.000000
E 343 575 94.000000
E 344 477 97.000000
E 346 593 104.000000
E 347 409 101.000000
E 347 428 95.000000
E 347 587 105.000000
E 347 615 98.000000
E 348 579 94.000000
E 349 542 103.000000
E 349 629 94.000000
E 350 430 100.000000
E 350 537 104.000000
E 351 531 102.000000
E 352 502 100.000000
E 353 410 97.000000
E 355 489 96.000000
E 355 577 97.000000
E 356 466 108.000000
E 356 631 95.000000
E 357 541 94.000000
E 357 606 100.000000
E 358 483 101.000000
E 358 592 97.000000
E 358 626 98.000000
E 359 367 101.000000
E 360 618 103.000000
E 361 365 104.000000
E 361 561 91.000000
E 363 491 96.000000
E 363 519 98.000000
E 363 573 106.000000
E 364 546 103.000000
E 365 388 102.000000
E 365 473 105.000000
E 366 447 109.000000
E 366 571 107.000000
E 367 458 103.000000
E 368 570 109.000000
E 370 557 104.000000
E 371 463 95.000000
E 371 496 108.000000
E 373 414 97.000000
E 373 555 102.000000
E 373 602 98.000000
E 374 386 101.000000
E 376 561 99.000000
E 377 442 98.000000
E 380 547 96.000000
E 381 472 100.000000
E 381 616 98.000000
E 382 454 97.000000
E 382 528 92.000000
E 383 422 101.000000
E 383 639 94.000000
E 386 416 104.000000
E 386 444 100.000000
E 386 631 102.000000
E 387 390 106.000000
E 388 585 101.000000
E 389 640 94.000000
E 390 569 91.000000
E 390 615 95.000000
E 391 466 113.000000
E 391 617 95.000000
E 392 477 110.000000
E 393 472 103.000000
E 393 584 92.000000
E 394 466 99.000000
E 397 474 98.000000
E 397 480 98.000000
E 398 499 93.000000
E 398 621 94.000000
E 399 510 103.000000
E 399 582 95.000000
E 400 415 102.000000
E 400 610 97.000000
E 400 613 101.000000
E 401 459 98.000000
E 401 504 105.000000
E 402 442 87.000000
E 405 541 100.000000
E 407 440 95.000000
E 408 630 96.000000
E 410 481 96.000000
E 411 491 96.000000
E 412 548 102.000000
E 413 593 93.000000
E 414 626 100.000000
E 415 508 101.000000
E 416 445 100.000000
E 416 455 99.000000
E 416 468 101.000000
E 418 476 109.000000
E 419 609 101.000000
E 421 559 89.000000
E 422 512 89.000000
E 424 463 95.000000
E 425 538 97.000000
E 429 615 91.000000
E 429 635 101.000000
E 430 434 95.000000
E 431 445 92.000000
E 431 493 93.000000
E 431 628 94.000000
E 432 453 100.000000
E 432 556 94.000000
E 434 470 101.000000
E 434 525 98.000000
E 435 580 101.000000
E 436 588 105.000000
E 438 523 101.000000
E 441 577 103.000000
E 443 458 102.000000
E 444 635 98.000000
E 447 480 101.000000
E 447 482 95.000000
E 448 509 98.000000
E 448 602 102.000000
E 449 588 97.000000
E 451 525 98.000000
E 455 577 98.000000
E 456 610 94.000000
E 457 546 98.000000
E 461 576 101.000000
E 463 630 109.000000
E 466 561 101.000000
E 468 478 94.000000
E 470 514 109.000000
E 475 483 99.000000
E 475 495 97.000000
E 475 618 95.000000
E 478 532 101.000000
E 479 622 96.000000
E 480 485 103.000000
E 480 539 93.000000
E 480 620 103.000000
E 481 534 99.000000
E 482 585 95.000000
E 483 619 102.000000
E 484 573 99.000000
E 484 608 103.000000
E 485 548 94.000000
E 485 585 94.000000
E 486 618 97.000000
E 491 614 100.000000
E 492 534 99.000000
E 493 499 101.000000
E 493 585 99.000000
E 495 572 92.000000
E 496 522 91.000000
E 497 581 101.000000
E 499 618 104.000000
E 505 511 110.000000
E 506 568 99.000000
E 506 611 103.000000
E 507 545 103.000000
E 511 556 98.000000
E 512 605 113.000000
E 515 518 100.000000
E 517 579 98.000000
E 518 628 110.000000
E 520 544 106.000000
E 522 634 94.000000
E 523 558 100.000000
E 523 628 107.000000
E 525 598 96.000000
E 525 639 103.000000
E 526 571 88.000000
E 530 535 107.000000
E 530 632 95.000000
E 532 586 99.000000
E 534 570 92.000000
E 536 624 102.000000
E 542 596 103.000000
E 544 618 90.000000
E 546 614 100.000000
E 550 626 105.000000
E 551 554 98.000000
E 555 562 101.000000
E 556 622 101.000000
E 557 633 99.000000
E 558 578 89.000000
E 559 633 97.000000
E 562 616 98.000000
E 568 617 101.000000
E 572 574 96.000000
E 573 632 93.000000
E 584 588 100.000000
E 588 622 101.000000
E 600 602 96.000000
E 602 612 94.000000
E 606 614 95.000000
E 607 623 101.000000
E 633 636 93.000000
END

SECTION Terminals
Terminals 160
TP 1 64.000000
TP 2 264.000000
TP 3 456.000000
TP 4 1136.000000
TP 5 652.000000
TP 6 932.000000
TP 7 548.000000
TP 8 436.000000
TP 9 664.000000
TP 10 36.000000
TP 11 140.000000
TP 12 300.000000
TP 13 980.000000
TP 14 836.000000
TP 15 268.000000
TP 16 1020.000000
TP 17 420.000000
TP 18 896.000000
TP 19 744.000000
TP 20 152.000000
TP 21 1076.000000
TP 22 760.000000
TP 23 1176.000000
TP 24 988.000000
TP 25 476.000000
TP 26 1060.000000
TP 27 576.000000
TP 28 560.000000
TP 29 536.000000
TP 30 1184.000000
TP 31 864.000000
TP 32 180.000000
TP 33 964.000000
TP 34 644.000000
TP 35 1144.000000
TP 36 572.000000
TP 37 980.000000
TP 38 760.000000
TP 39 580.000000
TP 40 1148.000000
TP 41 768.000000
TP 42 344.000000
TP 43 436.000000
TP 44 988.000000
TP 45 336.000000
TP 46 800.000000
TP 47 568.000000
TP 48 628.000000
TP 49 252.000000
TP 50 92.000000
TP 51 812.000000
TP 52 404.000000
TP 53 516.000000
TP 54 968.000000
TP 55 1088.000000
TP 56 404.000000
TP 57 1184.000000
TP 58 48.000000
TP 59 1200.000000
TP 60 396.000000
TP 61 612.000000
TP 62 612.000000
TP 63 316.000000
TP 64 380.000000
TP 65 648.000000
TP 66 1104.000000
TP 67 1000.000000
TP 68 416.000000
TP 69 108.000000
TP 70 660.000000
TP 71 1096.000000
TP 72 524.000000
TP 73 560.000000
TP 74 700.000000
TP 75 1004.000000
TP 76 748.000000
TP 77 348.000000
TP 78 616.000000
TP 79 396.000000
TP 80 820.000000
TP 81 476.000000
TP 82 1224.000000
TP 83 136.000000
TP 84 1216.000000
TP 85 736.000000
TP 86 676.000000
TP 87 424.000000
TP 88 904.000000
TP 89 728.000000
TP 90 64.000000
TP 91 624.000000
TP 92 1164.000000
TP 93 1108.000000
TP 94 736.000000
TP 95 920.000000
TP 96 644.000000
TP 97 48.000000
TP 98 1196.000000
TP 99 532.000000
TP 100 276.000000
TP 101 1036.000000
TP 102 380.000000
TP 103 288.000000
TP 104 1060.000000
TP 105 164.000000
TP 106 600.000000
TP 107 348.000000
TP 108 688.000000
TP 109 252.000000
TP 110 820.000000
TP 111 208.000000
TP 112 464.000000
TP 113 560.000000
TP 114 136.000000
TP 115 540.000000
TP 116 1060.000000
TP 117 788.000000
TP 118 640.000000
TP 119 1044.000000
TP 120 988.000000
TP 121 1036.000000
TP 122 1000.000000
TP 123 156.000000
TP 124 768.000000
TP 125 144.000000
TP 126 460.000000
TP 127 844.000000
TP 128 252.000000
TP 129 120.000000
TP 130 1120.000000
TP 131 296.000000
TP 132 408.000000
TP 133 1068.000000
TP 134 928.000000
TP 135 212.000000
TP 136 772.000000
TP 137 236.000000
TP 138 0.000000
TP 139 752.000000
TP 140 1100.000000
TP 141 476.000000
TP 142 876.000000
TP 143 460.000000
TP 144 940.000000
TP 145 924.000000
TP 146 1064.000000
TP 147 1040.000000
TP 148 540.000000
TP 149 1216.000000
TP 150 404.000000
TP 151 68.000000
TP 152 796.000000
TP 153 860.000000
TP 154 248.000000
TP 155 176.000000
TP 156 48.000000
TP 157 784.000000
TP 158 468.000000
TP 159 1116.000000
TP 160 1168.000000
END

EOF
